(set-info :source  loris-7.ddns.comp.nus.edu.sg/~project/hip/) 
;Variables declarations
(declare-fun nmin1_2537 () Int)
(declare-fun nmin2_2539 () Int)
(declare-fun r_2538 () Int)
(declare-fun l_2536 () Int)
(declare-fun n () Int)
(declare-fun nmin () Int)
(declare-fun flted_26_2123 () Int)
(declare-fun nmin1_2126 () Int)
(declare-fun flted_26_2122 () Int)
(declare-fun nmin2_2128 () Int)
(declare-fun n_2216 () Int)
(declare-fun nmin_2217 () Int)
(declare-fun nmin_2235 () Int)
(declare-fun nmin_2260 () Int)
(declare-fun n_2234 () Int)
(declare-fun n_2132 () Int)
(declare-fun nmin_2133 () Int)
(declare-fun nmin_2151 () Int)
(declare-fun l_2125 () Int)
(declare-fun nmin1_2290 () Int)
(declare-fun aux_2532 () Int)
(declare-fun n_2150 () Int)
(declare-fun n_2259 () Int)
;Relations declarations
;Axioms assertions
;Antecedent
(assert (<= nmin_2217 n_2216))
(assert (<= 0 nmin_2217))
(assert (<= nmin2_2128 flted_26_2122))
(assert (<= 0 nmin2_2128))
(assert (<= nmin1_2126 flted_26_2123))
(assert (<= 0 nmin1_2126))
(assert (< nmin n))
(assert (= nmin1_2537 nmin_2151))
(assert (= nmin2_2539 nmin1_2290))
(assert (= r_2538 aux_2532))
(assert (= l_2536 l_2125))
(assert (< nmin_2217 n_2234))
(assert (= (+ flted_26_2123 1) n))
(assert (= (+ flted_26_2122 1) n))
(assert (exists ((min_2570 Int)) (and (= nmin (+ 1 min_2570)) (or (and (= min_2570 nmin1_2126) (< nmin1_2126 nmin2_2128)) (and (= min_2570 nmin2_2128) (>= nmin1_2126 nmin2_2128))))))
(assert (= n_2132 flted_26_2123))
(assert (= nmin_2133 nmin1_2126))
(assert (= nmin_2151 nmin_2133))
(assert (<= 0 nmin_2133))
(assert (<= nmin_2133 n_2132))
(assert (<= 0 nmin_2151))
(assert (= n_2216 flted_26_2122))
(assert (= nmin_2217 nmin2_2128))
(assert (= n_2234 n_2216))
(assert (= nmin_2235 nmin_2217))
(assert (= nmin_2260 nmin_2235))
(assert (<= 0 nmin_2235))
(assert (<= nmin_2235 n_2234))
(assert (or (= nmin1_2290 nmin_2260) (= nmin1_2290 (+ 1 nmin_2260))))
(assert (<= 0 nmin_2260))
(assert (<= nmin_2260 n_2259))
(assert (= n_2259 n_2234))
(assert (<= nmin_2151 n_2150))
(assert (= n_2150 n_2132))
(assert (<= n_2150 nmin_2133))
(assert (or (and (and (<= 1 nmin_2151) (<= nmin_2151 n_2150)) (> l_2125 0)) (or (and (and (< l_2125 1) (= n_2150 0)) (= nmin_2151 0)) (and (and (<= 1 nmin_2151) (< nmin_2151 n_2150)) (> l_2125 0)))))
(assert (or (and (and (<= 1 nmin1_2290) (<= nmin1_2290 n_2259)) (> aux_2532 0)) (or (and (and (< aux_2532 1) (= n_2259 0)) (= nmin1_2290 0)) (and (and (<= 1 nmin1_2290) (< nmin1_2290 n_2259)) (> aux_2532 0)))))
;Negation of Consequence
(assert (not (= (+ 1 n_2150) (+ 2 n_2259))))
(check-sat)